32	5.0	10.0	33029649
32	10.0	15.0	31932339
32	15.0	45.0	30919668
32	20.0	65.0	30453763
32	25.0	90.0	29790439
32	30.0	110.0	29179258
32	35.0	115.0	28847734
32	40.0	125.0	28343343
32	46.0	140.0	27864283
32	50.0	150.0	27493753
32	55.0	155.0	27089887
32	60.0	160.0	26708028
32	65.0	175.0	26334295
32	70.0	170.0	26072376
32	73.0	185.0	25888846
32	75.0	190.0	25804231
32	80.0	185.0	25585707
32	85.0	200.0	25382002
